Maximize
  - 0.0020854643963006 edge_0_3_0_0 - 0.8121258987269999 edge_0_4_0_0
   - 1.6981111851606 edge_0_5_0_0 - 1.39653904096 edge_0_22_0_0
   + 1.220322774379785 edge_3_4_0_0 + 0.7008447924802985 edge_3_5_0_0
   - 0.2738158116333196 edge_3_6_0_0 + 0.0714023508734763 edge_3_8_0_0
   + 0.9902989634856066 edge_3_9_0_0 + 1.124235991593196 edge_3_10_0_0
   + 0.0538729777949797 edge_3_13_0_0 + 0.1162169660681562 edge_3_14_0_0
   - 0.1036021330836295 edge_3_18_0_0 + 0.6453385972839095 edge_3_19_0_0
   + 0.8549135967956749 edge_3_22_0_0 - 0.2616895940590194 edge_3_24_0_0
   - 0.2135058127844376 edge_3_26_0_0 - 0.2181235933885999 edge_3_30_0_0
   + 3.58315470812613 edge_3_31_0_0 + 0.4985925776526376 edge_4_3_0_0
   + 0.745845336674904 edge_4_5_0_0 - 0.0619954246464443 edge_4_6_0_0
   + 0.1786489377124547 edge_4_8_0_0 + 0.8119359160621716 edge_4_9_0_0
   + 0.4189262474532719 edge_4_10_0_0 - 0.0344262079738043 edge_4_13_0_0
   + 0.13571739948027 edge_4_14_0_0 + 0.2755924605451282 edge_4_18_0_0
   + 0.3795876447786608 edge_4_19_0_0 + 0.3472132043575388 edge_4_22_0_0
   - 0.3472537733141559 edge_4_24_0_0 - 0.1444525094760824 edge_4_26_0_0
   - 0.0897221797884309 edge_4_30_0_0 + 1.433596368770673 edge_4_31_0_0
   - 4.4657389547166646e-04 edge_5_3_0_0 + 0.4262532437599505 edge_5_4_0_0
   + 0.0626875996212841 edge_5_6_0_0 + 0.1591466996431408 edge_5_8_0_0
   - 0.0872105748184377 edge_5_9_0_0 + 0.1314332912455847 edge_5_10_0_0
   - 0.2147103991868619 edge_5_13_0_0 - 0.3390662237031428 edge_5_14_0_0
   - 0.4571845235921657 edge_5_18_0_0 - 0.3123364345731972 edge_5_19_0_0
   - 0.2180346726786017 edge_5_22_0_0 - 0.3109927640066141 edge_5_24_0_0
   + 0.5978475944392206 edge_5_31_0_0 - 0.1374863410409876 edge_6_4_0_0
   + 0.1928650276169323 edge_6_8_0_0 - 1.337884963338023 edge_8_3_0_0
   - 0.6049242481346468 edge_8_4_0_0 - 0.3023755088321083 edge_8_5_0_0
   + 0.5859233863574997 edge_8_6_0_0 + 0.8480006019407834 edge_8_9_0_0
   - 0.00401181215051622 edge_8_10_0_0 - 0.3141854551514926 edge_8_13_0_0
   - 0.1827938832232578 edge_8_22_0_0 - 0.1133997036924135 edge_8_31_0_0
   + 0.1564033741950947 edge_9_3_0_0 + 0.1601249846257951 edge_9_4_0_0
   + 0.4946987681493726 edge_9_5_0_0 + 2.518488002633746 edge_9_6_0_0
   + 2.953555324792653 edge_9_8_0_0 + 0.363936142329539 edge_9_10_0_0
   - 0.0593185050897258 edge_9_13_0_0 + 0.1804520001526551 edge_9_14_0_0
   + 0.9504815884281698 edge_9_18_0_0 + 0.00744411944577168 edge_9_19_0_0
   - 0.0888185953076329 edge_9_22_0_0 - 0.334514455149141 edge_9_26_0_0
   - 0.0647724587875022 edge_9_30_0_0 + 0.2371581478113496 edge_9_31_0_0
   - 0.5023924655431917 edge_10_9_0_0 - 0.8137656324362048 edge_13_5_0_0
   - 0.8477679423816925 edge_13_9_0_0 + 1.741259369574768 edge_13_14_0_0
   - 0.225707763084036 edge_13_18_0_0 - 0.1452535254298915 edge_13_19_0_0
   + 0.3230660247777407 edge_13_22_0_0 - 0.0765711592717087 edge_13_24_0_0
   - 0.1286870260140141 edge_13_26_0_0 + 0.1274590055283542 edge_13_30_0_0
   + 0.0695807717938132 edge_13_31_0_0 - 0.7224545927482702 edge_14_3_0_0
   - 0.4754744340088277 edge_14_4_0_0 - 0.515778995444821 edge_14_5_0_0
   - 0.7647169470585167 edge_14_6_0_0 + 0.2258800527820324 edge_14_8_0_0
   - 0.8110522356315959 edge_14_10_0_0 + 2.65414949751598 edge_14_13_0_0
   + 0.4262933673501278 edge_14_18_0_0 + 0.5749328954690787 edge_14_19_0_0
   + 0.2340043387173901 edge_14_22_0_0 - 0.2038856334412528 edge_14_24_0_0
   - 0.1285145873070542 edge_14_26_0_0 - 0.0428808688109587 edge_14_30_0_0
   - 0.1798234823621933 edge_18_6_0_0 - 0.1446032538443935 edge_18_8_0_0
   - 0.8736665015415621 edge_18_9_0_0 - 0.1168035268314373 edge_18_10_0_0
   + 0.7392801500810817 edge_18_13_0_0 + 1.613431895296447 edge_18_14_0_0
   + 3.03280060023702 edge_18_19_0_0 + 0.4727502995023725 edge_18_22_0_0
   - 0.1168879379945114 edge_18_24_0_0 + 0.0142819009452299 edge_18_26_0_0
   + 0.2260471534095178 edge_18_30_0_0 + 0.6255282666797118 edge_18_31_0_0
   - 0.8796806229362953 edge_19_3_0_0 - 0.5598521358388068 edge_19_5_0_0
   - 0.5841910927604061 edge_19_6_0_0 + 0.2564810226091179 edge_19_8_0_0
   - 0.6824245918684962 edge_19_9_0_0 - 0.0976538231433352 edge_19_10_0_0
   + 1.150325605270266 edge_19_13_0_0 + 2.337943938407078 edge_19_14_0_0
   + 0.7528413266617666 edge_19_18_0_0 + 0.5927960007402936 edge_19_22_0_0
   - 0.0674823191016351 edge_19_24_0_0 - 0.0569888679750668 edge_19_26_0_0
   + 0.3543582304249377 edge_19_30_0_0 + 0.756918200925729 edge_19_31_0_0
   - 0.00471196696268421 edge_22_3_0_0 - 0.00518225059210295 edge_22_4_0_0
   + 0.1228421064617708 edge_22_5_0_0 - 0.3871343485050249 edge_22_6_0_0
   + 0.3772649230840806 edge_22_8_0_0 + 0.5113329236941319 edge_22_9_0_0
   - 0.4451432259285582 edge_22_10_0_0 + 0.6234844767055091 edge_22_13_0_0
   + 1.37491354844582 edge_22_14_0_0 + 1.214455865578099 edge_22_18_0_0
   + 1.113665350823973 edge_22_19_0_0 + 1.178307470245538 edge_22_24_0_0
   + 0.4229077839014065 edge_22_26_0_0 + 0.9904080546351872 edge_22_30_0_0
   + 1.730806596832611 edge_22_31_0_0 + 0.059699108770452 edge_24_26_0_0
   - 0.0863475913669443 edge_24_30_0_0 - 0.2475172561074557 edge_26_14_0_0
   + 0.2062640573655064 edge_26_24_0_0 + 0.1757130621555554 edge_26_30_0_0
   - 0.3868444472851974 edge_30_3_0_0 - 0.2632980084580033 edge_30_4_0_0
   - 1.014978441387085 edge_30_6_0_0 + 0.4475667839728112 edge_30_13_0_0
   - 0.1961156491707343 edge_30_14_0_0 - 0.0510330788781407 edge_30_18_0_0
   + 0.090523302494684 edge_30_19_0_0 + 0.3110223114660697 edge_30_24_0_0
   + 0.7530090399453031 edge_30_26_0_0 + 0.3943924142429046 edge_30_31_0_0
Subject To
 one_parent_1: = 1
 consume_one_flow_unit_1: = 1
 one_parent_2: = 1
 consume_one_flow_unit_2: = 1
 one_parent_3: edge_0_3_0_0 + edge_4_3_0_0 + edge_5_3_0_0 + edge_8_3_0_0
   + edge_9_3_0_0 + edge_14_3_0_0 + edge_19_3_0_0 + edge_22_3_0_0
   + edge_30_3_0_0 = 1
 consume_one_flow_unit_3: flow_0_3_0_0 - flow_3_4_0_0 - flow_3_5_0_0
   - flow_3_6_0_0 - flow_3_8_0_0 - flow_3_9_0_0 - flow_3_10_0_0
   - flow_3_13_0_0 - flow_3_14_0_0 - flow_3_18_0_0 - flow_3_19_0_0
   - flow_3_22_0_0 - flow_3_24_0_0 - flow_3_26_0_0 - flow_3_30_0_0
   - flow_3_31_0_0 + flow_4_3_0_0 + flow_5_3_0_0 + flow_8_3_0_0
   + flow_9_3_0_0 + flow_14_3_0_0 + flow_19_3_0_0 + flow_22_3_0_0
   + flow_30_3_0_0 = 1
 one_parent_4: edge_0_4_0_0 + edge_3_4_0_0 + edge_5_4_0_0 + edge_6_4_0_0
   + edge_8_4_0_0 + edge_9_4_0_0 + edge_14_4_0_0 + edge_22_4_0_0
   + edge_30_4_0_0 = 1
 consume_one_flow_unit_4: flow_0_4_0_0 + flow_3_4_0_0 - flow_4_3_0_0
   - flow_4_5_0_0 - flow_4_6_0_0 - flow_4_8_0_0 - flow_4_9_0_0
   - flow_4_10_0_0 - flow_4_13_0_0 - flow_4_14_0_0 - flow_4_18_0_0
   - flow_4_19_0_0 - flow_4_22_0_0 - flow_4_24_0_0 - flow_4_26_0_0
   - flow_4_30_0_0 - flow_4_31_0_0 + flow_5_4_0_0 + flow_6_4_0_0
   + flow_8_4_0_0 + flow_9_4_0_0 + flow_14_4_0_0 + flow_22_4_0_0
   + flow_30_4_0_0 = 1
 one_parent_5: edge_0_5_0_0 + edge_3_5_0_0 + edge_4_5_0_0 + edge_8_5_0_0
   + edge_9_5_0_0 + edge_13_5_0_0 + edge_14_5_0_0 + edge_19_5_0_0
   + edge_22_5_0_0 = 1
 consume_one_flow_unit_5: flow_0_5_0_0 + flow_3_5_0_0 + flow_4_5_0_0
   - flow_5_3_0_0 - flow_5_4_0_0 - flow_5_6_0_0 - flow_5_8_0_0
   - flow_5_9_0_0 - flow_5_10_0_0 - flow_5_13_0_0 - flow_5_14_0_0
   - flow_5_18_0_0 - flow_5_19_0_0 - flow_5_22_0_0 - flow_5_24_0_0
   - flow_5_31_0_0 + flow_8_5_0_0 + flow_9_5_0_0 + flow_13_5_0_0
   + flow_14_5_0_0 + flow_19_5_0_0 + flow_22_5_0_0 = 1
 one_parent_6: edge_3_6_0_0 + edge_4_6_0_0 + edge_5_6_0_0 + edge_8_6_0_0
   + edge_9_6_0_0 + edge_14_6_0_0 + edge_18_6_0_0 + edge_19_6_0_0
   + edge_22_6_0_0 + edge_30_6_0_0 = 1
 consume_one_flow_unit_6: flow_3_6_0_0 + flow_4_6_0_0 + flow_5_6_0_0
   - flow_6_4_0_0 - flow_6_8_0_0 + flow_8_6_0_0 + flow_9_6_0_0
   + flow_14_6_0_0 + flow_18_6_0_0 + flow_19_6_0_0 + flow_22_6_0_0
   + flow_30_6_0_0 = 1
 one_parent_7: = 1
 consume_one_flow_unit_7: = 1
 one_parent_8: edge_3_8_0_0 + edge_4_8_0_0 + edge_5_8_0_0 + edge_6_8_0_0
   + edge_9_8_0_0 + edge_14_8_0_0 + edge_18_8_0_0 + edge_19_8_0_0
   + edge_22_8_0_0 = 1
 consume_one_flow_unit_8: flow_3_8_0_0 + flow_4_8_0_0 + flow_5_8_0_0
   + flow_6_8_0_0 - flow_8_3_0_0 - flow_8_4_0_0 - flow_8_5_0_0
   - flow_8_6_0_0 - flow_8_9_0_0 - flow_8_10_0_0 - flow_8_13_0_0
   - flow_8_22_0_0 - flow_8_31_0_0 + flow_9_8_0_0 + flow_14_8_0_0
   + flow_18_8_0_0 + flow_19_8_0_0 + flow_22_8_0_0 = 1
 one_parent_9: edge_3_9_0_0 + edge_4_9_0_0 + edge_5_9_0_0 + edge_8_9_0_0
   + edge_10_9_0_0 + edge_13_9_0_0 + edge_18_9_0_0 + edge_19_9_0_0
   + edge_22_9_0_0 = 1
 consume_one_flow_unit_9: flow_3_9_0_0 + flow_4_9_0_0 + flow_5_9_0_0
   + flow_8_9_0_0 - flow_9_3_0_0 - flow_9_4_0_0 - flow_9_5_0_0
   - flow_9_6_0_0 - flow_9_8_0_0 - flow_9_10_0_0 - flow_9_13_0_0
   - flow_9_14_0_0 - flow_9_18_0_0 - flow_9_19_0_0 - flow_9_22_0_0
   - flow_9_26_0_0 - flow_9_30_0_0 - flow_9_31_0_0 + flow_10_9_0_0
   + flow_13_9_0_0 + flow_18_9_0_0 + flow_19_9_0_0 + flow_22_9_0_0 = 1
 one_parent_10: edge_3_10_0_0 + edge_4_10_0_0 + edge_5_10_0_0
   + edge_8_10_0_0 + edge_9_10_0_0 + edge_14_10_0_0 + edge_18_10_0_0
   + edge_19_10_0_0 + edge_22_10_0_0 = 1
 consume_one_flow_unit_10: flow_3_10_0_0 + flow_4_10_0_0 + flow_5_10_0_0
   + flow_8_10_0_0 + flow_9_10_0_0 - flow_10_9_0_0 + flow_14_10_0_0
   + flow_18_10_0_0 + flow_19_10_0_0 + flow_22_10_0_0 = 1
 one_parent_11: = 1
 consume_one_flow_unit_11: = 1
 one_parent_12: = 1
 consume_one_flow_unit_12: = 1
 one_parent_13: edge_3_13_0_0 + edge_4_13_0_0 + edge_5_13_0_0
   + edge_8_13_0_0 + edge_9_13_0_0 + edge_14_13_0_0 + edge_18_13_0_0
   + edge_19_13_0_0 + edge_22_13_0_0 + edge_30_13_0_0 = 1
 consume_one_flow_unit_13: flow_3_13_0_0 + flow_4_13_0_0 + flow_5_13_0_0
   + flow_8_13_0_0 + flow_9_13_0_0 - flow_13_5_0_0 - flow_13_9_0_0
   - flow_13_14_0_0 - flow_13_18_0_0 - flow_13_19_0_0 - flow_13_22_0_0
   - flow_13_24_0_0 - flow_13_26_0_0 - flow_13_30_0_0 - flow_13_31_0_0
   + flow_14_13_0_0 + flow_18_13_0_0 + flow_19_13_0_0 + flow_22_13_0_0
   + flow_30_13_0_0 = 1
 one_parent_14: edge_3_14_0_0 + edge_4_14_0_0 + edge_5_14_0_0
   + edge_9_14_0_0 + edge_13_14_0_0 + edge_18_14_0_0 + edge_19_14_0_0
   + edge_22_14_0_0 + edge_26_14_0_0 + edge_30_14_0_0 = 1
 consume_one_flow_unit_14: flow_3_14_0_0 + flow_4_14_0_0 + flow_5_14_0_0
   + flow_9_14_0_0 + flow_13_14_0_0 - flow_14_3_0_0 - flow_14_4_0_0
   - flow_14_5_0_0 - flow_14_6_0_0 - flow_14_8_0_0 - flow_14_10_0_0
   - flow_14_13_0_0 - flow_14_18_0_0 - flow_14_19_0_0 - flow_14_22_0_0
   - flow_14_24_0_0 - flow_14_26_0_0 - flow_14_30_0_0 + flow_18_14_0_0
   + flow_19_14_0_0 + flow_22_14_0_0 + flow_26_14_0_0 + flow_30_14_0_0 = 1
 one_parent_15: = 1
 consume_one_flow_unit_15: = 1
 one_parent_16: = 1
 consume_one_flow_unit_16: = 1
 one_parent_17: = 1
 consume_one_flow_unit_17: = 1
 one_parent_18: edge_3_18_0_0 + edge_4_18_0_0 + edge_5_18_0_0
   + edge_9_18_0_0 + edge_13_18_0_0 + edge_14_18_0_0 + edge_19_18_0_0
   + edge_22_18_0_0 + edge_30_18_0_0 = 1
 consume_one_flow_unit_18: flow_3_18_0_0 + flow_4_18_0_0 + flow_5_18_0_0
   + flow_9_18_0_0 + flow_13_18_0_0 + flow_14_18_0_0 - flow_18_6_0_0
   - flow_18_8_0_0 - flow_18_9_0_0 - flow_18_10_0_0 - flow_18_13_0_0
   - flow_18_14_0_0 - flow_18_19_0_0 - flow_18_22_0_0 - flow_18_24_0_0
   - flow_18_26_0_0 - flow_18_30_0_0 - flow_18_31_0_0 + flow_19_18_0_0
   + flow_22_18_0_0 + flow_30_18_0_0 = 1
 one_parent_19: edge_3_19_0_0 + edge_4_19_0_0 + edge_5_19_0_0
   + edge_9_19_0_0 + edge_13_19_0_0 + edge_14_19_0_0 + edge_18_19_0_0
   + edge_22_19_0_0 + edge_30_19_0_0 = 1
 consume_one_flow_unit_19: flow_3_19_0_0 + flow_4_19_0_0 + flow_5_19_0_0
   + flow_9_19_0_0 + flow_13_19_0_0 + flow_14_19_0_0 + flow_18_19_0_0
   - flow_19_3_0_0 - flow_19_5_0_0 - flow_19_6_0_0 - flow_19_8_0_0
   - flow_19_9_0_0 - flow_19_10_0_0 - flow_19_13_0_0 - flow_19_14_0_0
   - flow_19_18_0_0 - flow_19_22_0_0 - flow_19_24_0_0 - flow_19_26_0_0
   - flow_19_30_0_0 - flow_19_31_0_0 + flow_22_19_0_0 + flow_30_19_0_0 = 1
 one_parent_20: = 1
 consume_one_flow_unit_20: = 1
 one_parent_21: = 1
 consume_one_flow_unit_21: = 1
 one_parent_22: edge_0_22_0_0 + edge_3_22_0_0 + edge_4_22_0_0
   + edge_5_22_0_0 + edge_8_22_0_0 + edge_9_22_0_0 + edge_13_22_0_0
   + edge_14_22_0_0 + edge_18_22_0_0 + edge_19_22_0_0 = 1
 consume_one_flow_unit_22: flow_0_22_0_0 + flow_3_22_0_0 + flow_4_22_0_0
   + flow_5_22_0_0 + flow_8_22_0_0 + flow_9_22_0_0 + flow_13_22_0_0
   + flow_14_22_0_0 + flow_18_22_0_0 + flow_19_22_0_0 - flow_22_3_0_0
   - flow_22_4_0_0 - flow_22_5_0_0 - flow_22_6_0_0 - flow_22_8_0_0
   - flow_22_9_0_0 - flow_22_10_0_0 - flow_22_13_0_0 - flow_22_14_0_0
   - flow_22_18_0_0 - flow_22_19_0_0 - flow_22_24_0_0 - flow_22_26_0_0
   - flow_22_30_0_0 - flow_22_31_0_0 = 1
 one_parent_23: = 1
 consume_one_flow_unit_23: = 1
 one_parent_24: edge_3_24_0_0 + edge_4_24_0_0 + edge_5_24_0_0
   + edge_13_24_0_0 + edge_14_24_0_0 + edge_18_24_0_0 + edge_19_24_0_0
   + edge_22_24_0_0 + edge_26_24_0_0 + edge_30_24_0_0 = 1
 consume_one_flow_unit_24: flow_3_24_0_0 + flow_4_24_0_0 + flow_5_24_0_0
   + flow_13_24_0_0 + flow_14_24_0_0 + flow_18_24_0_0 + flow_19_24_0_0
   + flow_22_24_0_0 - flow_24_26_0_0 - flow_24_30_0_0 + flow_26_24_0_0
   + flow_30_24_0_0 = 1
 one_parent_25: = 1
 consume_one_flow_unit_25: = 1
 one_parent_26: edge_3_26_0_0 + edge_4_26_0_0 + edge_9_26_0_0
   + edge_13_26_0_0 + edge_14_26_0_0 + edge_18_26_0_0 + edge_19_26_0_0
   + edge_22_26_0_0 + edge_24_26_0_0 + edge_30_26_0_0 = 1
 consume_one_flow_unit_26: flow_3_26_0_0 + flow_4_26_0_0 + flow_9_26_0_0
   + flow_13_26_0_0 + flow_14_26_0_0 + flow_18_26_0_0 + flow_19_26_0_0
   + flow_22_26_0_0 + flow_24_26_0_0 - flow_26_14_0_0 - flow_26_24_0_0
   - flow_26_30_0_0 + flow_30_26_0_0 = 1
 one_parent_27: = 1
 consume_one_flow_unit_27: = 1
 one_parent_28: = 1
 consume_one_flow_unit_28: = 1
 one_parent_29: = 1
 consume_one_flow_unit_29: = 1
 one_parent_30: edge_3_30_0_0 + edge_4_30_0_0 + edge_9_30_0_0
   + edge_13_30_0_0 + edge_14_30_0_0 + edge_18_30_0_0 + edge_19_30_0_0
   + edge_22_30_0_0 + edge_24_30_0_0 + edge_26_30_0_0 = 1
 consume_one_flow_unit_30: flow_3_30_0_0 + flow_4_30_0_0 + flow_9_30_0_0
   + flow_13_30_0_0 + flow_14_30_0_0 + flow_18_30_0_0 + flow_19_30_0_0
   + flow_22_30_0_0 + flow_24_30_0_0 + flow_26_30_0_0 - flow_30_3_0_0
   - flow_30_4_0_0 - flow_30_6_0_0 - flow_30_13_0_0 - flow_30_14_0_0
   - flow_30_18_0_0 - flow_30_19_0_0 - flow_30_24_0_0 - flow_30_26_0_0
   - flow_30_31_0_0 = 1
 one_parent_31: edge_3_31_0_0 + edge_4_31_0_0 + edge_5_31_0_0
   + edge_8_31_0_0 + edge_9_31_0_0 + edge_13_31_0_0 + edge_18_31_0_0
   + edge_19_31_0_0 + edge_22_31_0_0 + edge_30_31_0_0 = 1
 consume_one_flow_unit_31: flow_3_31_0_0 + flow_4_31_0_0 + flow_5_31_0_0
   + flow_8_31_0_0 + flow_9_31_0_0 + flow_13_31_0_0 + flow_18_31_0_0
   + flow_19_31_0_0 + flow_22_31_0_0 + flow_30_31_0_0 = 1
 root_flow: flow_0_3_0_0 + flow_0_4_0_0 + flow_0_5_0_0 + flow_0_22_0_0
   = 31
 inactive_no_flow_0_3_0_0: flow_0_3_0_0 - 1000 edge_0_3_0_0 <= 0
 inactive_no_flow_0_4_0_0: flow_0_4_0_0 - 1000 edge_0_4_0_0 <= 0
 inactive_no_flow_0_5_0_0: flow_0_5_0_0 - 1000 edge_0_5_0_0 <= 0
 inactive_no_flow_0_22_0_0: flow_0_22_0_0 - 1000 edge_0_22_0_0 <= 0
 inactive_no_flow_3_4_0_0: flow_3_4_0_0 - 1000 edge_3_4_0_0 <= 0
 inactive_no_flow_3_5_0_0: flow_3_5_0_0 - 1000 edge_3_5_0_0 <= 0
 inactive_no_flow_3_6_0_0: flow_3_6_0_0 - 1000 edge_3_6_0_0 <= 0
 inactive_no_flow_3_8_0_0: flow_3_8_0_0 - 1000 edge_3_8_0_0 <= 0
 inactive_no_flow_3_9_0_0: flow_3_9_0_0 - 1000 edge_3_9_0_0 <= 0
 inactive_no_flow_3_10_0_0: flow_3_10_0_0 - 1000 edge_3_10_0_0 <= 0
 inactive_no_flow_3_13_0_0: flow_3_13_0_0 - 1000 edge_3_13_0_0 <= 0
 inactive_no_flow_3_14_0_0: flow_3_14_0_0 - 1000 edge_3_14_0_0 <= 0
 inactive_no_flow_3_18_0_0: flow_3_18_0_0 - 1000 edge_3_18_0_0 <= 0
 inactive_no_flow_3_19_0_0: flow_3_19_0_0 - 1000 edge_3_19_0_0 <= 0
 inactive_no_flow_3_22_0_0: flow_3_22_0_0 - 1000 edge_3_22_0_0 <= 0
 inactive_no_flow_3_24_0_0: flow_3_24_0_0 - 1000 edge_3_24_0_0 <= 0
 inactive_no_flow_3_26_0_0: flow_3_26_0_0 - 1000 edge_3_26_0_0 <= 0
 inactive_no_flow_3_30_0_0: flow_3_30_0_0 - 1000 edge_3_30_0_0 <= 0
 inactive_no_flow_3_31_0_0: flow_3_31_0_0 - 1000 edge_3_31_0_0 <= 0
 inactive_no_flow_4_3_0_0: flow_4_3_0_0 - 1000 edge_4_3_0_0 <= 0
 inactive_no_flow_4_5_0_0: flow_4_5_0_0 - 1000 edge_4_5_0_0 <= 0
 inactive_no_flow_4_6_0_0: flow_4_6_0_0 - 1000 edge_4_6_0_0 <= 0
 inactive_no_flow_4_8_0_0: flow_4_8_0_0 - 1000 edge_4_8_0_0 <= 0
 inactive_no_flow_4_9_0_0: flow_4_9_0_0 - 1000 edge_4_9_0_0 <= 0
 inactive_no_flow_4_10_0_0: flow_4_10_0_0 - 1000 edge_4_10_0_0 <= 0
 inactive_no_flow_4_13_0_0: flow_4_13_0_0 - 1000 edge_4_13_0_0 <= 0
 inactive_no_flow_4_14_0_0: flow_4_14_0_0 - 1000 edge_4_14_0_0 <= 0
 inactive_no_flow_4_18_0_0: flow_4_18_0_0 - 1000 edge_4_18_0_0 <= 0
 inactive_no_flow_4_19_0_0: flow_4_19_0_0 - 1000 edge_4_19_0_0 <= 0
 inactive_no_flow_4_22_0_0: flow_4_22_0_0 - 1000 edge_4_22_0_0 <= 0
 inactive_no_flow_4_24_0_0: flow_4_24_0_0 - 1000 edge_4_24_0_0 <= 0
 inactive_no_flow_4_26_0_0: flow_4_26_0_0 - 1000 edge_4_26_0_0 <= 0
 inactive_no_flow_4_30_0_0: flow_4_30_0_0 - 1000 edge_4_30_0_0 <= 0
 inactive_no_flow_4_31_0_0: flow_4_31_0_0 - 1000 edge_4_31_0_0 <= 0
 inactive_no_flow_5_3_0_0: flow_5_3_0_0 - 1000 edge_5_3_0_0 <= 0
 inactive_no_flow_5_4_0_0: flow_5_4_0_0 - 1000 edge_5_4_0_0 <= 0
 inactive_no_flow_5_6_0_0: flow_5_6_0_0 - 1000 edge_5_6_0_0 <= 0
 inactive_no_flow_5_8_0_0: flow_5_8_0_0 - 1000 edge_5_8_0_0 <= 0
 inactive_no_flow_5_9_0_0: flow_5_9_0_0 - 1000 edge_5_9_0_0 <= 0
 inactive_no_flow_5_10_0_0: flow_5_10_0_0 - 1000 edge_5_10_0_0 <= 0
 inactive_no_flow_5_13_0_0: flow_5_13_0_0 - 1000 edge_5_13_0_0 <= 0
 inactive_no_flow_5_14_0_0: flow_5_14_0_0 - 1000 edge_5_14_0_0 <= 0
 inactive_no_flow_5_18_0_0: flow_5_18_0_0 - 1000 edge_5_18_0_0 <= 0
 inactive_no_flow_5_19_0_0: flow_5_19_0_0 - 1000 edge_5_19_0_0 <= 0
 inactive_no_flow_5_22_0_0: flow_5_22_0_0 - 1000 edge_5_22_0_0 <= 0
 inactive_no_flow_5_24_0_0: flow_5_24_0_0 - 1000 edge_5_24_0_0 <= 0
 inactive_no_flow_5_31_0_0: flow_5_31_0_0 - 1000 edge_5_31_0_0 <= 0
 inactive_no_flow_6_4_0_0: flow_6_4_0_0 - 1000 edge_6_4_0_0 <= 0
 inactive_no_flow_6_8_0_0: flow_6_8_0_0 - 1000 edge_6_8_0_0 <= 0
 inactive_no_flow_8_3_0_0: flow_8_3_0_0 - 1000 edge_8_3_0_0 <= 0
 inactive_no_flow_8_4_0_0: flow_8_4_0_0 - 1000 edge_8_4_0_0 <= 0
 inactive_no_flow_8_5_0_0: flow_8_5_0_0 - 1000 edge_8_5_0_0 <= 0
 inactive_no_flow_8_6_0_0: flow_8_6_0_0 - 1000 edge_8_6_0_0 <= 0
 inactive_no_flow_8_9_0_0: flow_8_9_0_0 - 1000 edge_8_9_0_0 <= 0
 inactive_no_flow_8_10_0_0: flow_8_10_0_0 - 1000 edge_8_10_0_0 <= 0
 inactive_no_flow_8_13_0_0: flow_8_13_0_0 - 1000 edge_8_13_0_0 <= 0
 inactive_no_flow_8_22_0_0: flow_8_22_0_0 - 1000 edge_8_22_0_0 <= 0
 inactive_no_flow_8_31_0_0: flow_8_31_0_0 - 1000 edge_8_31_0_0 <= 0
 inactive_no_flow_9_3_0_0: flow_9_3_0_0 - 1000 edge_9_3_0_0 <= 0
 inactive_no_flow_9_4_0_0: flow_9_4_0_0 - 1000 edge_9_4_0_0 <= 0
 inactive_no_flow_9_5_0_0: flow_9_5_0_0 - 1000 edge_9_5_0_0 <= 0
 inactive_no_flow_9_6_0_0: flow_9_6_0_0 - 1000 edge_9_6_0_0 <= 0
 inactive_no_flow_9_8_0_0: flow_9_8_0_0 - 1000 edge_9_8_0_0 <= 0
 inactive_no_flow_9_10_0_0: flow_9_10_0_0 - 1000 edge_9_10_0_0 <= 0
 inactive_no_flow_9_13_0_0: flow_9_13_0_0 - 1000 edge_9_13_0_0 <= 0
 inactive_no_flow_9_14_0_0: flow_9_14_0_0 - 1000 edge_9_14_0_0 <= 0
 inactive_no_flow_9_18_0_0: flow_9_18_0_0 - 1000 edge_9_18_0_0 <= 0
 inactive_no_flow_9_19_0_0: flow_9_19_0_0 - 1000 edge_9_19_0_0 <= 0
 inactive_no_flow_9_22_0_0: flow_9_22_0_0 - 1000 edge_9_22_0_0 <= 0
 inactive_no_flow_9_26_0_0: flow_9_26_0_0 - 1000 edge_9_26_0_0 <= 0
 inactive_no_flow_9_30_0_0: flow_9_30_0_0 - 1000 edge_9_30_0_0 <= 0
 inactive_no_flow_9_31_0_0: flow_9_31_0_0 - 1000 edge_9_31_0_0 <= 0
 inactive_no_flow_10_9_0_0: flow_10_9_0_0 - 1000 edge_10_9_0_0 <= 0
 inactive_no_flow_13_5_0_0: flow_13_5_0_0 - 1000 edge_13_5_0_0 <= 0
 inactive_no_flow_13_9_0_0: flow_13_9_0_0 - 1000 edge_13_9_0_0 <= 0
 inactive_no_flow_13_14_0_0: flow_13_14_0_0 - 1000 edge_13_14_0_0 <= 0
 inactive_no_flow_13_18_0_0: flow_13_18_0_0 - 1000 edge_13_18_0_0 <= 0
 inactive_no_flow_13_19_0_0: flow_13_19_0_0 - 1000 edge_13_19_0_0 <= 0
 inactive_no_flow_13_22_0_0: flow_13_22_0_0 - 1000 edge_13_22_0_0 <= 0
 inactive_no_flow_13_24_0_0: flow_13_24_0_0 - 1000 edge_13_24_0_0 <= 0
 inactive_no_flow_13_26_0_0: flow_13_26_0_0 - 1000 edge_13_26_0_0 <= 0
 inactive_no_flow_13_30_0_0: flow_13_30_0_0 - 1000 edge_13_30_0_0 <= 0
 inactive_no_flow_13_31_0_0: flow_13_31_0_0 - 1000 edge_13_31_0_0 <= 0
 inactive_no_flow_14_3_0_0: flow_14_3_0_0 - 1000 edge_14_3_0_0 <= 0
 inactive_no_flow_14_4_0_0: flow_14_4_0_0 - 1000 edge_14_4_0_0 <= 0
 inactive_no_flow_14_5_0_0: flow_14_5_0_0 - 1000 edge_14_5_0_0 <= 0
 inactive_no_flow_14_6_0_0: flow_14_6_0_0 - 1000 edge_14_6_0_0 <= 0
 inactive_no_flow_14_8_0_0: flow_14_8_0_0 - 1000 edge_14_8_0_0 <= 0
 inactive_no_flow_14_10_0_0: flow_14_10_0_0 - 1000 edge_14_10_0_0 <= 0
 inactive_no_flow_14_13_0_0: flow_14_13_0_0 - 1000 edge_14_13_0_0 <= 0
 inactive_no_flow_14_18_0_0: flow_14_18_0_0 - 1000 edge_14_18_0_0 <= 0
 inactive_no_flow_14_19_0_0: flow_14_19_0_0 - 1000 edge_14_19_0_0 <= 0
 inactive_no_flow_14_22_0_0: flow_14_22_0_0 - 1000 edge_14_22_0_0 <= 0
 inactive_no_flow_14_24_0_0: flow_14_24_0_0 - 1000 edge_14_24_0_0 <= 0
 inactive_no_flow_14_26_0_0: flow_14_26_0_0 - 1000 edge_14_26_0_0 <= 0
 inactive_no_flow_14_30_0_0: flow_14_30_0_0 - 1000 edge_14_30_0_0 <= 0
 inactive_no_flow_18_6_0_0: flow_18_6_0_0 - 1000 edge_18_6_0_0 <= 0
 inactive_no_flow_18_8_0_0: flow_18_8_0_0 - 1000 edge_18_8_0_0 <= 0
 inactive_no_flow_18_9_0_0: flow_18_9_0_0 - 1000 edge_18_9_0_0 <= 0
 inactive_no_flow_18_10_0_0: flow_18_10_0_0 - 1000 edge_18_10_0_0 <= 0
 inactive_no_flow_18_13_0_0: flow_18_13_0_0 - 1000 edge_18_13_0_0 <= 0
 inactive_no_flow_18_14_0_0: flow_18_14_0_0 - 1000 edge_18_14_0_0 <= 0
 inactive_no_flow_18_19_0_0: flow_18_19_0_0 - 1000 edge_18_19_0_0 <= 0
 inactive_no_flow_18_22_0_0: flow_18_22_0_0 - 1000 edge_18_22_0_0 <= 0
 inactive_no_flow_18_24_0_0: flow_18_24_0_0 - 1000 edge_18_24_0_0 <= 0
 inactive_no_flow_18_26_0_0: flow_18_26_0_0 - 1000 edge_18_26_0_0 <= 0
 inactive_no_flow_18_30_0_0: flow_18_30_0_0 - 1000 edge_18_30_0_0 <= 0
 inactive_no_flow_18_31_0_0: flow_18_31_0_0 - 1000 edge_18_31_0_0 <= 0
 inactive_no_flow_19_3_0_0: flow_19_3_0_0 - 1000 edge_19_3_0_0 <= 0
 inactive_no_flow_19_5_0_0: flow_19_5_0_0 - 1000 edge_19_5_0_0 <= 0
 inactive_no_flow_19_6_0_0: flow_19_6_0_0 - 1000 edge_19_6_0_0 <= 0
 inactive_no_flow_19_8_0_0: flow_19_8_0_0 - 1000 edge_19_8_0_0 <= 0
 inactive_no_flow_19_9_0_0: flow_19_9_0_0 - 1000 edge_19_9_0_0 <= 0
 inactive_no_flow_19_10_0_0: flow_19_10_0_0 - 1000 edge_19_10_0_0 <= 0
 inactive_no_flow_19_13_0_0: flow_19_13_0_0 - 1000 edge_19_13_0_0 <= 0
 inactive_no_flow_19_14_0_0: flow_19_14_0_0 - 1000 edge_19_14_0_0 <= 0
 inactive_no_flow_19_18_0_0: flow_19_18_0_0 - 1000 edge_19_18_0_0 <= 0
 inactive_no_flow_19_22_0_0: flow_19_22_0_0 - 1000 edge_19_22_0_0 <= 0
 inactive_no_flow_19_24_0_0: flow_19_24_0_0 - 1000 edge_19_24_0_0 <= 0
 inactive_no_flow_19_26_0_0: flow_19_26_0_0 - 1000 edge_19_26_0_0 <= 0
 inactive_no_flow_19_30_0_0: flow_19_30_0_0 - 1000 edge_19_30_0_0 <= 0
 inactive_no_flow_19_31_0_0: flow_19_31_0_0 - 1000 edge_19_31_0_0 <= 0
 inactive_no_flow_22_3_0_0: flow_22_3_0_0 - 1000 edge_22_3_0_0 <= 0
 inactive_no_flow_22_4_0_0: flow_22_4_0_0 - 1000 edge_22_4_0_0 <= 0
 inactive_no_flow_22_5_0_0: flow_22_5_0_0 - 1000 edge_22_5_0_0 <= 0
 inactive_no_flow_22_6_0_0: flow_22_6_0_0 - 1000 edge_22_6_0_0 <= 0
 inactive_no_flow_22_8_0_0: flow_22_8_0_0 - 1000 edge_22_8_0_0 <= 0
 inactive_no_flow_22_9_0_0: flow_22_9_0_0 - 1000 edge_22_9_0_0 <= 0
 inactive_no_flow_22_10_0_0: flow_22_10_0_0 - 1000 edge_22_10_0_0 <= 0
 inactive_no_flow_22_13_0_0: flow_22_13_0_0 - 1000 edge_22_13_0_0 <= 0
 inactive_no_flow_22_14_0_0: flow_22_14_0_0 - 1000 edge_22_14_0_0 <= 0
 inactive_no_flow_22_18_0_0: flow_22_18_0_0 - 1000 edge_22_18_0_0 <= 0
 inactive_no_flow_22_19_0_0: flow_22_19_0_0 - 1000 edge_22_19_0_0 <= 0
 inactive_no_flow_22_24_0_0: flow_22_24_0_0 - 1000 edge_22_24_0_0 <= 0
 inactive_no_flow_22_26_0_0: flow_22_26_0_0 - 1000 edge_22_26_0_0 <= 0
 inactive_no_flow_22_30_0_0: flow_22_30_0_0 - 1000 edge_22_30_0_0 <= 0
 inactive_no_flow_22_31_0_0: flow_22_31_0_0 - 1000 edge_22_31_0_0 <= 0
 inactive_no_flow_24_26_0_0: flow_24_26_0_0 - 1000 edge_24_26_0_0 <= 0
 inactive_no_flow_24_30_0_0: flow_24_30_0_0 - 1000 edge_24_30_0_0 <= 0
 inactive_no_flow_26_14_0_0: flow_26_14_0_0 - 1000 edge_26_14_0_0 <= 0
 inactive_no_flow_26_24_0_0: flow_26_24_0_0 - 1000 edge_26_24_0_0 <= 0
 inactive_no_flow_26_30_0_0: flow_26_30_0_0 - 1000 edge_26_30_0_0 <= 0
 inactive_no_flow_30_3_0_0: flow_30_3_0_0 - 1000 edge_30_3_0_0 <= 0
 inactive_no_flow_30_4_0_0: flow_30_4_0_0 - 1000 edge_30_4_0_0 <= 0
 inactive_no_flow_30_6_0_0: flow_30_6_0_0 - 1000 edge_30_6_0_0 <= 0
 inactive_no_flow_30_13_0_0: flow_30_13_0_0 - 1000 edge_30_13_0_0 <= 0
 inactive_no_flow_30_14_0_0: flow_30_14_0_0 - 1000 edge_30_14_0_0 <= 0
 inactive_no_flow_30_18_0_0: flow_30_18_0_0 - 1000 edge_30_18_0_0 <= 0
 inactive_no_flow_30_19_0_0: flow_30_19_0_0 - 1000 edge_30_19_0_0 <= 0
 inactive_no_flow_30_24_0_0: flow_30_24_0_0 - 1000 edge_30_24_0_0 <= 0
 inactive_no_flow_30_26_0_0: flow_30_26_0_0 - 1000 edge_30_26_0_0 <= 0
 inactive_no_flow_30_31_0_0: flow_30_31_0_0 - 1000 edge_30_31_0_0 <= 0
Bounds
Binaries
 edge_0_3_0_0 edge_0_4_0_0 edge_0_5_0_0 edge_0_22_0_0 edge_3_4_0_0
 edge_3_5_0_0 edge_3_6_0_0 edge_3_8_0_0 edge_3_9_0_0 edge_3_10_0_0
 edge_3_13_0_0 edge_3_14_0_0 edge_3_18_0_0 edge_3_19_0_0 edge_3_22_0_0
 edge_3_24_0_0 edge_3_26_0_0 edge_3_30_0_0 edge_3_31_0_0 edge_4_3_0_0
 edge_4_5_0_0 edge_4_6_0_0 edge_4_8_0_0 edge_4_9_0_0 edge_4_10_0_0
 edge_4_13_0_0 edge_4_14_0_0 edge_4_18_0_0 edge_4_19_0_0 edge_4_22_0_0
 edge_4_24_0_0 edge_4_26_0_0 edge_4_30_0_0 edge_4_31_0_0 edge_5_3_0_0
 edge_5_4_0_0 edge_5_6_0_0 edge_5_8_0_0 edge_5_9_0_0 edge_5_10_0_0
 edge_5_13_0_0 edge_5_14_0_0 edge_5_18_0_0 edge_5_19_0_0 edge_5_22_0_0
 edge_5_24_0_0 edge_5_31_0_0 edge_6_4_0_0 edge_6_8_0_0 edge_8_3_0_0
 edge_8_4_0_0 edge_8_5_0_0 edge_8_6_0_0 edge_8_9_0_0 edge_8_10_0_0
 edge_8_13_0_0 edge_8_22_0_0 edge_8_31_0_0 edge_9_3_0_0 edge_9_4_0_0
 edge_9_5_0_0 edge_9_6_0_0 edge_9_8_0_0 edge_9_10_0_0 edge_9_13_0_0
 edge_9_14_0_0 edge_9_18_0_0 edge_9_19_0_0 edge_9_22_0_0 edge_9_26_0_0
 edge_9_30_0_0 edge_9_31_0_0 edge_10_9_0_0 edge_13_5_0_0 edge_13_9_0_0
 edge_13_14_0_0 edge_13_18_0_0 edge_13_19_0_0 edge_13_22_0_0 edge_13_24_0_0
 edge_13_26_0_0 edge_13_30_0_0 edge_13_31_0_0 edge_14_3_0_0 edge_14_4_0_0
 edge_14_5_0_0 edge_14_6_0_0 edge_14_8_0_0 edge_14_10_0_0 edge_14_13_0_0
 edge_14_18_0_0 edge_14_19_0_0 edge_14_22_0_0 edge_14_24_0_0 edge_14_26_0_0
 edge_14_30_0_0 edge_18_6_0_0 edge_18_8_0_0 edge_18_9_0_0 edge_18_10_0_0
 edge_18_13_0_0 edge_18_14_0_0 edge_18_19_0_0 edge_18_22_0_0 edge_18_24_0_0
 edge_18_26_0_0 edge_18_30_0_0 edge_18_31_0_0 edge_19_3_0_0 edge_19_5_0_0
 edge_19_6_0_0 edge_19_8_0_0 edge_19_9_0_0 edge_19_10_0_0 edge_19_13_0_0
 edge_19_14_0_0 edge_19_18_0_0 edge_19_22_0_0 edge_19_24_0_0 edge_19_26_0_0
 edge_19_30_0_0 edge_19_31_0_0 edge_22_3_0_0 edge_22_4_0_0 edge_22_5_0_0
 edge_22_6_0_0 edge_22_8_0_0 edge_22_9_0_0 edge_22_10_0_0 edge_22_13_0_0
 edge_22_14_0_0 edge_22_18_0_0 edge_22_19_0_0 edge_22_24_0_0 edge_22_26_0_0
 edge_22_30_0_0 edge_22_31_0_0 edge_24_26_0_0 edge_24_30_0_0 edge_26_14_0_0
 edge_26_24_0_0 edge_26_30_0_0 edge_30_3_0_0 edge_30_4_0_0 edge_30_6_0_0
 edge_30_13_0_0 edge_30_14_0_0 edge_30_18_0_0 edge_30_19_0_0 edge_30_24_0_0
 edge_30_26_0_0 edge_30_31_0_0
End
